Version identifier: 22.1.0.0 | 2022-03-09 | 1a383f8ce
CPXPARAM_Threads                                 1
CPXPARAM_MIP_Strategy_VariableSelect             3
CPXPARAM_TimeLimit                               599.99998213799995
1 of 1 MIP starts provided solutions.
MIP start 'm1' defined initial solution with objective 5.0000.
Tried aggregator 1 time.
MIP Presolve eliminated 8 rows and 0 columns.
MIP Presolve modified 4 coefficients.
Reduced MIP has 2117 rows, 7500 columns, and 94939 nonzeros.
Reduced MIP has 7500 binaries, 0 generals, 0 SOSs, and 0 indicators.
Presolve time = 0.06 sec. (53.08 ticks)
Probing time = 0.01 sec. (4.32 ticks)
Tried aggregator 1 time.
Detecting symmetries...
MIP Presolve eliminated 4 rows and 0 columns.
Reduced MIP has 2113 rows, 7500 columns, and 94770 nonzeros.
Reduced MIP has 7500 binaries, 0 generals, 0 SOSs, and 0 indicators.
Presolve time = 0.07 sec. (50.69 ticks)
Probing time = 0.00 sec. (4.32 ticks)
Clique table members: 898.
MIP emphasis: balance optimality and feasibility.
MIP search method: dynamic search.
Parallel mode: none, using 1 thread.
Root relaxation solution time = 1.58 sec. (1654.24 ticks)

        Nodes                                         Cuts/
   Node  Left     Objective  IInf  Best Integer    Best Bound    ItCnt     Gap

*     0+    0                            5.0000     7500.0000              --- 
      0     0      300.0000  1149        5.0000      300.0000     5283     --- 
      0     0      300.0000   783        5.0000      Cuts: 24    10333     --- 
*     0+    0                           69.0000      300.0000           334.78%
      0     0      300.0000   716       69.0000      Cuts: 15    15027  334.78%
      0     0      300.0000   892       69.0000       Cuts: 6    20590  334.78%
      0     0      300.0000   399       69.0000    Cliques: 8    22554  334.78%
*     0+    0                          162.0000      300.0000            85.19%
      0     0      300.0000  1039      162.0000      Cuts: 39    28887   85.19%
*     0+    0                          176.0000      300.0000            70.45%
Detecting symmetries...
Detecting symmetries...
      0     2      300.0000   290      176.0000      300.0000    28887   70.45%
Elapsed time = 116.57 sec. (129379.21 ticks, tree = 0.01 MB, solutions = 4)
      1     3      300.0000   295      176.0000      300.0000    37208   70.45%
      2     4      300.0000   350      176.0000      300.0000    42203   70.45%
      3     5      300.0000   616      176.0000      300.0000    46994   70.45%
      4     6      300.0000   875      176.0000      300.0000    51011   70.45%
      5     7      300.0000   616      176.0000      300.0000    51013   70.45%
      6     8      300.0000   616      176.0000      300.0000    51263   70.45%
      7     9      300.0000  1293      176.0000      300.0000    53027   70.45%
      8    10      300.0000   856      176.0000      300.0000    57977   70.45%
      9    11      300.0000   866      176.0000      300.0000    57998   70.45%
     10    12      300.0000   947      176.0000      300.0000    60440   70.45%
Elapsed time = 132.19 sec. (146557.58 ticks, tree = 0.15 MB, solutions = 4)
     11    13      300.0000   864      176.0000      300.0000    60454   70.45%
     12    14      300.0000  1234      176.0000      300.0000    70089   70.45%
     13    15      300.0000  1263      176.0000      300.0000    72042   70.45%
     14    16      300.0000   886      176.0000      300.0000    79443   70.45%
     16    18      300.0000   817      176.0000      300.0000    95371   70.45%
     18    20      300.0000   868      176.0000      300.0000   100151   70.45%
     19    21      300.0000   951      176.0000      300.0000   109107   70.45%
     20    22      300.0000   828      176.0000      300.0000   109453   70.45%
     21    23      300.0000   793      176.0000      300.0000   113497   70.45%
     22    24      300.0000   693      176.0000      300.0000   119302   70.45%
Elapsed time = 159.38 sec. (175406.48 ticks, tree = 0.38 MB, solutions = 4)
     23    25      300.0000   821      176.0000      300.0000   123331   70.45%
     24    26      300.0000   889      176.0000      300.0000   128479   70.45%
     25    27      300.0000   676      176.0000      300.0000   132371   70.45%
     26    28      300.0000   807      176.0000      300.0000   139826   70.45%
     28    30      300.0000   584      176.0000      300.0000   144629   70.45%
     29    31      300.0000   651      176.0000      300.0000   168476   70.45%
     30    32      300.0000   591      176.0000      300.0000   168893   70.45%
     32    34      300.0000   527      176.0000      300.0000   175013   70.45%
     34    36      300.0000   499      176.0000      300.0000   179691   70.45%
     36    38      300.0000   512      176.0000      300.0000   184131   70.45%
Elapsed time = 182.61 sec. (198843.80 ticks, tree = 0.42 MB, solutions = 4)
     38    40      300.0000   513      176.0000      300.0000   191186   70.45%
     40    42      300.0000   783      176.0000      300.0000   200356   70.45%
     44    46      300.0000   480      176.0000      300.0000   205586   70.45%
     47    49      300.0000   473      176.0000      300.0000   209787   70.45%
     48    50      300.0000   536      176.0000      300.0000   216174   70.45%
     50    52      300.0000   469      176.0000      300.0000   221533   70.45%
     52    54      300.0000   471      176.0000      300.0000   227013   70.45%
     54    56      300.0000   500      176.0000      300.0000   230847   70.45%
     55    57      300.0000   557      176.0000      300.0000   237115   70.45%
     56    58      300.0000   507      176.0000      300.0000   243596   70.45%
Elapsed time = 203.44 sec. (220158.99 ticks, tree = 0.51 MB, solutions = 4)
     57    59      300.0000   516      176.0000      300.0000   249618   70.45%
     58    60      300.0000   800      176.0000      300.0000   253165   70.45%
     60    62      300.0000   510      176.0000      300.0000   257330   70.45%
     63    65      300.0000   499      176.0000      300.0000   257754   70.45%
     65    67      300.0000   505      176.0000      300.0000   266090   70.45%
     67    69      300.0000   708      176.0000      300.0000   277548   70.45%
     68    70      300.0000   573      176.0000      300.0000   282602   70.45%
     69    71      300.0000   610      176.0000      300.0000   288327   70.45%
     72    74      300.0000   577      176.0000      300.0000   289153   70.45%
     74    76      300.0000   573      176.0000      300.0000   294403   70.45%
Elapsed time = 218.85 sec. (235865.68 ticks, tree = 0.88 MB, solutions = 4)
     76    78      300.0000   548      176.0000      300.0000   296707   70.45%
     80    82      300.0000   534      176.0000      300.0000   300877   70.45%
     82    84      300.0000   611      176.0000      300.0000   307437   70.45%
     83    85      300.0000   534      176.0000      300.0000   314221   70.45%
     85    87      300.0000   526      176.0000      300.0000   321908   70.45%
     86    88      300.0000   504      176.0000      300.0000   327579   70.45%
     88    90      300.0000   590      176.0000      300.0000   347956   70.45%
     89    91      300.0000   584      176.0000      300.0000   353399   70.45%
     91    93      300.0000   705      176.0000      300.0000   357787   70.45%
     93    95      300.0000   493      176.0000      300.0000   358878   70.45%
Elapsed time = 239.91 sec. (256634.02 ticks, tree = 1.22 MB, solutions = 4)
     95    97      300.0000   518      176.0000      300.0000   362140   70.45%
     96    98      300.0000   655      176.0000      300.0000   365929   70.45%
     97    99      300.0000   556      176.0000      300.0000   371966   70.45%
     98   100      300.0000   579      176.0000      300.0000   379409   70.45%
     99   101      300.0000   580      176.0000      300.0000   383903   70.45%
    100   102      300.0000   550      176.0000      300.0000   387887   70.45%
    101   103      300.0000   641      176.0000      300.0000   392091   70.45%
    102   104      300.0000   500      176.0000      300.0000   393941   70.45%
    103   105      300.0000   468      176.0000      300.0000   397524   70.45%
    104   106      300.0000   452      176.0000      300.0000   401632   70.45%
Elapsed time = 257.61 sec. (274833.40 ticks, tree = 1.39 MB, solutions = 4)
    105   107      300.0000   412      176.0000      300.0000   404694   70.45%
    106   108      300.0000   408      176.0000      300.0000   411233   70.45%
    107   109      300.0000   438      176.0000      300.0000   417599   70.45%
    108   110      300.0000   354      176.0000      300.0000   422599   70.45%
    109   111      300.0000   473      176.0000      300.0000   428580   70.45%
    111   113      300.0000   251      176.0000      300.0000   433161   70.45%
    112   114      300.0000   446      176.0000      300.0000   446690   70.45%
    113   115      300.0000   488      176.0000      300.0000   453938   70.45%
    115   117      300.0000   392      176.0000      300.0000   461745   70.45%
    116   118      300.0000   447      176.0000      300.0000   467706   70.45%
Elapsed time = 280.50 sec. (297994.43 ticks, tree = 1.51 MB, solutions = 4)
    117   119      300.0000   389      176.0000      300.0000   474153   70.45%
    118   120      300.0000   426      176.0000      300.0000   480656   70.45%
    120   122      300.0000   363      176.0000      300.0000   487949   70.45%
    121   123      299.9899   605      176.0000      300.0000   498284   70.45%
    123   125      300.0000   323      176.0000      300.0000   504353   70.45%
    124   126      300.0000   360      176.0000      300.0000   510588   70.45%
    126   128      300.0000   291      176.0000      300.0000   517920   70.45%
    127   129      300.0000   332      176.0000      300.0000   523919   70.45%
    128   130      300.0000   316      176.0000      300.0000   530834   70.45%
    129   131      300.0000   255      176.0000      300.0000   538231   70.45%
Elapsed time = 304.33 sec. (321911.84 ticks, tree = 1.55 MB, solutions = 4)
    131   133      300.0000   246      176.0000      300.0000   545356   70.45%
    132   134      300.0000   335      176.0000      300.0000   555400   70.45%
    134   136      300.0000   294      176.0000      300.0000   563408   70.45%
    136   138      300.0000   218      176.0000      300.0000   570309   70.45%
    138   140      300.0000   242      176.0000      300.0000   574120   70.45%
    139   141      300.0000   241      176.0000      300.0000   581874   70.45%
    141   143      300.0000   286      176.0000      300.0000   600228   70.45%
    142   144      300.0000   267      176.0000      300.0000   605341   70.45%
    144   146      300.0000   382      176.0000      300.0000   611716   70.45%
    147   149      300.0000   183      176.0000      300.0000   624506   70.45%
Elapsed time = 326.22 sec. (343177.06 ticks, tree = 1.64 MB, solutions = 4)
    150   152      300.0000   338      176.0000      300.0000   637892   70.45%
    153   155      300.0000   248      176.0000      300.0000   653064   70.45%
    155   157      300.0000   194      176.0000      300.0000   666493   70.45%
    158   160      300.0000   205      176.0000      300.0000   682474   70.45%
    160   162      300.0000   223      176.0000      300.0000   694636   70.45%
    163   165      299.9303   450      176.0000      300.0000   728550   70.45%
    167   169      299.8161   357      176.0000      300.0000   740675   70.45%
    170   172      300.0000   217      176.0000      300.0000   752294   70.45%
    174   176      300.0000   238      176.0000      300.0000   766574   70.45%
    177   179      300.0000   307      176.0000      300.0000   779496   70.45%
Elapsed time = 373.28 sec. (389392.95 ticks, tree = 1.99 MB, solutions = 4)
    180   182      299.9651   421      176.0000      300.0000   799779   70.45%
    182   184      300.0000   215      176.0000      300.0000   815117   70.45%
    185   187      299.9477   421      176.0000      300.0000   831686   70.45%
    188   190      300.0000   260      176.0000      300.0000   844496   70.45%
    190   192      300.0000   256      176.0000      300.0000   857483   70.45%
    193   195      300.0000   266      176.0000      300.0000   875801   70.45%
    196   198      299.9303   437      176.0000      300.0000   892878   70.45%
    198   200      299.9251   515      176.0000      300.0000   905989   70.45%
    202   204      300.0000   249      176.0000      300.0000   916085   70.45%
    206   208      300.0000   329      176.0000      300.0000   930499   70.45%
Elapsed time = 425.73 sec. (442151.78 ticks, tree = 2.43 MB, solutions = 4)
    211   213      299.8954   503      176.0000      300.0000   945108   70.45%
    220   222      299.0000   322      176.0000      300.0000   954581   70.45%
    226   228      299.0000   401      176.0000      300.0000   965042   70.45%
    233   235      299.9819   510      176.0000      300.0000   974352   70.45%
    240   242      299.9819   504      176.0000      300.0000   982706   70.45%
    247   249      299.9819   494      176.0000      300.0000   990737   70.45%
    257   259      299.9650   564      176.0000      300.0000  1001318   70.45%
    266   268      298.9333   582      176.0000      300.0000  1008817   70.45%
    276   278      299.9819   455      176.0000      300.0000  1016949   70.45%
    284   286      299.9725   543      176.0000      300.0000  1028519   70.45%
Elapsed time = 465.43 sec. (484296.00 ticks, tree = 3.99 MB, solutions = 4)
    292   294      299.9818   465      176.0000      300.0000  1038796   70.45%
    300   302      298.8571   453      176.0000      300.0000  1046201   70.45%
    309   311      298.7778   408      176.0000      300.0000  1057867   70.45%
    317   319      299.9745   398      176.0000      300.0000  1069466   70.45%
    327   329      299.9739   400      176.0000      300.0000  1078979   70.45%
    339   341      298.9000   417      176.0000      300.0000  1088549   70.45%
    350   352      299.9733   453      176.0000      300.0000  1097324   70.45%
    360   362      298.7778   471      176.0000      300.0000  1105744   70.45%
    368   370      299.9483   452      176.0000      300.0000  1120320   70.45%
    376   378      299.9614   431      176.0000      300.0000  1132757   70.45%
Elapsed time = 511.66 sec. (531096.87 ticks, tree = 5.79 MB, solutions = 4)
    385   387      298.9000   335      176.0000      300.0000  1143275   70.45%
    393   395      299.9528   437      176.0000      300.0000  1154993   70.45%
    404   406      299.9522   448      176.0000      300.0000  1165316   70.45%
    414   416      299.9390   393      176.0000      300.0000  1176713   70.45%
    422   424      299.8507   398      176.0000      300.0000  1190278   70.45%
    433   435      298.9000   452      176.0000      300.0000  1201510   70.45%
    440   442      299.9295   444      176.0000      300.0000  1207989   70.45%
    451   453      299.9255   424      176.0000      300.0000  1217159   70.45%
    460   462      299.9086   428      176.0000      300.0000  1230944   70.45%
    470   472      299.6750   449      176.0000      300.0000  1245131   70.45%
Elapsed time = 556.58 sec. (576506.27 ticks, tree = 7.63 MB, solutions = 4)
    480   482      299.9056   459      176.0000      300.0000  1257077   70.45%
    492   494      299.8805   413      176.0000      300.0000  1269486   70.45%
Starting limited solution polishing.
*   500+  500                          249.0000      300.0000            20.48%
*   500+  500                          270.0000      300.0000            11.11%
*   500+  500                          289.0000      300.0000             3.81%
*   500+  500                          290.0000      300.0000             3.45%
    500   502      299.8203   352      290.0000      300.0000  1277866    3.45%
    508   510      299.8903   378      290.0000      300.0000  1291084    3.45%
    519   520      299.8838   398      290.0000      300.0000  1305156    3.45%
    529   530      299.8217   336      290.0000      300.0000  1317466    3.45%
    539   540      299.8584   394      290.0000      300.0000  1330371    3.45%
    552   553      298.7778   377      290.0000      300.0000  1343161    3.45%
    563   564      298.7778   373      290.0000      300.0000  1356445    3.45%

Clique cuts applied:  34
Zero-half cuts applied:  5

Root node processing (before b&c):
  Real time             =  116.52 sec. (129325.89 ticks)
Sequential b&c:
  Real time             =  483.48 sec. (489605.57 ticks)
                          ------------
Total (root+branch&cut) =  600.00 sec. (618931.46 ticks)
Primal:	290
Dual:	300
Status:	Feasible
Time:	600
Sequence:
	24
	5
	0
	1
	20
	2
	9
	1
	16
	21
	17
	11
	3
	0
	7
	11
	8
	0
	4
	13
	8
	14
	17
	11
	19
	0
	1
	23
	2
	10
	1
	24
	5
	20
	2
	23
	5
	24
	21
	20
	22
	23
	21
	8
	13
	4
	0
	3
	13
	17
	5
	16
	1
	0
	4
	1
	16
	5
	10
	15
	20
	2
	4
	1
	24
	21
	10
	15
	11
	7
	0
	3
	11
	17
	21
	16
	1
	9
	2
	23
	6
	0
	4
	15
	23
	21
	0
	3
	11
	17
	0
	19
	11
	17
	5
	16
	6
	9
	2
	23
	15
	10
	22
	20
	15
	9
	21
	16
	1
	4
	18
	6
	16
	21
	18
	1
	16
	2
	4
	11
	15
	10
	21
	24
	15
	9
	2
	20
	15
	9
	5
	16
	6
	4
	18
	8
	13
	7
	18
	3
	13
	17
	0
	1
	20
	15
	9
	6
	24
	21
	17
	11
	19
	0
	4
	11
	8
	21
	10
	15
	19
	12
	17
	13
	3
	0
	17
	13
	3
	0
	4
	13
	8
	14
	17
	11
	19
	18
	7
	13
	8
	18
	17
	13
	19
	18
	4
	13
	8
	14
	17
	11
	19
	18
	7
	11
	8
	21
	10
	15
	20
	22
	4
	6
	16
	5
	10
	15
	23
	21
	17
	13
	3
	18
	19
	14
	8
	12
	3
	0
	19
	12
	8
	12
	19
	0
	3
	12
	8
	14
	19
	18
	3
	14
	8
	14
	3
	18
	19
	18
	19
	12
	15
	14
	15
	20
	22
	10
	6
	15
	4
	18
	6
	20
	22
	10
	1
	24
	21
	10
	15
	20
	22
	9
	6
	24
	21
	9
	15
	20
	2
	9
	1
	24
	21
	10
	15
	23
	2
	9
	6
	24
	5
	10
	15
	20
	2
	9
	1
	24
